TCS_Benchmarks/redos_fix/snort1_output_distinct_2565_2564_0_0.txt
([^\n\r]*)(\s+)
([^\n\r]*)([aA][tT][lL])(\s+)